
n_res = 4;
rcap = [19, 19, 550, 557];
rtype = [1, 1, 2, 2];
n_tasks = 100;
modes =  [{1, 2, 3}, {4, 5, 6}, {7, 8, 9}, {10, 11, 12}, {13, 14, 15}, {16, 17, 18}, {19, 20, 21}, {22, 23, 24}, {25, 26, 27}, {28, 29, 30}, {31, 32, 33}, {34, 35, 36}, {37, 38, 39}, {40, 41, 42}, {43, 44, 45}, {46, 47, 48}, {49, 50, 51}, {52, 53, 54}, {55, 56, 57}, {58, 59, 60}, {61, 62, 63}, {64, 65, 66}, {67, 68, 69}, {70, 71, 72}, {73, 74, 75}, {76, 77, 78}, {79, 80, 81}, {82, 83, 84}, {85, 86, 87}, {88, 89, 90}, {91, 92, 93}, {94, 95, 96}, {97, 98, 99}, {100, 101, 102}, {103, 104, 105}, {106, 107, 108}, {109, 110, 111}, {112, 113, 114}, {115, 116, 117}, {118, 119, 120}, {121, 122, 123}, {124, 125, 126}, {127, 128, 129}, {130, 131, 132}, {133, 134, 135}, {136, 137, 138}, {139, 140, 141}, {142, 143, 144}, {145, 146, 147}, {148, 149, 150}, {151, 152, 153}, {154, 155, 156}, {157, 158, 159}, {160, 161, 162}, {163, 164, 165}, {166, 167, 168}, {169, 170, 171}, {172, 173, 174}, {175, 176, 177}, {178, 179, 180}, {181, 182, 183}, {184, 185, 186}, {187, 188, 189}, {190, 191, 192}, {193, 194, 195}, {196, 197, 198}, {199, 200, 201}, {202, 203, 204}, {205, 206, 207}, {208, 209, 210}, {211, 212, 213}, {214, 215, 216}, {217, 218, 219}, {220, 221, 222}, {223, 224, 225}, {226, 227, 228}, {229, 230, 231}, {232, 233, 234}, {235, 236, 237}, {238, 239, 240}, {241, 242, 243}, {244, 245, 246}, {247, 248, 249}, {250, 251, 252}, {253, 254, 255}, {256, 257, 258}, {259, 260, 261}, {262, 263, 264}, {265, 266, 267}, {268, 269, 270}, {271, 272, 273}, {274, 275, 276}, {277, 278, 279}, {280, 281, 282}, {283, 284, 285}, {286, 287, 288}, {289, 290, 291}, {292, 293, 294}, {295, 296, 297}, {298, 299, 300}];
succ =  [{56, 44, 38, 36, 32, 31, 29, 24, 23, 19, 13}, {50, 44, 41, 37, 36, 32, 31, 30, 29, 24, 23, 21, 19}, {69, 56, 50, 49, 44, 41, 39, 37, 36, 35, 32, 30, 25, 24, 21}, {53, 50, 41, 39, 38, 31, 29, 26, 21, 15}, {57, 56, 55, 53, 50, 45, 44, 43, 40, 39, 37, 33, 31, 27, 25, 23}, {53, 52, 51, 49, 45, 43, 39, 34, 33, 32, 13}, {69, 60, 56, 54, 53, 50, 49, 48, 46, 43, 41, 40, 39, 38, 35, 30, 27}, {57, 51, 42, 37, 31, 19, 16}, {69, 57, 55, 53, 52, 50, 49, 45, 41, 37, 34, 32, 31, 25}, {69, 55, 53, 49, 40, 38, 37, 33, 31, 27, 21}, {69, 60, 57, 51, 50, 48, 47, 46, 44, 41, 40, 39, 38, 36, 35}, {69, 61, 60, 55, 53, 52, 51, 50, 49, 48, 47, 43, 40, 33}, {69, 64, 58, 57, 55, 50, 41, 40, 37, 25}, {72, 62, 61, 60, 58, 57, 56, 54, 51, 50, 48, 47, 46, 45, 44, 40}, {72, 61, 60, 56, 51, 48, 46, 44, 43, 40, 36}, {83, 69, 61, 48, 46, 45, 44, 36, 34}, {61, 60, 57, 50, 47, 44, 40, 38, 33}, {60, 57, 53, 50, 48, 46, 42, 40, 33}, {64, 60, 52, 49, 47, 45, 40, 39, 33}, {100, 72, 71, 69, 64, 61, 58, 57, 55, 53, 52, 50, 48, 47, 46}, {72, 60, 57, 54, 52, 46, 45, 43, 42}, {72, 71, 48, 47, 46, 44, 41, 36}, {83, 72, 70, 69, 64, 62, 61, 60, 54, 52, 48, 46}, {72, 60, 58, 53, 51, 47, 46, 43}, {100, 83, 72, 71, 70, 62, 54, 48, 46, 42}, {83, 78, 71, 70, 69, 64, 63, 62, 61, 60, 47, 44}, {100, 73, 64, 63, 62, 58, 51, 42}, {77, 73, 70, 65, 63, 62, 50, 42}, {100, 83, 62, 48, 47, 45}, {100, 83, 78, 77, 75, 73, 72, 71, 66, 63, 61, 58, 55}, {99, 83, 62, 61, 59, 58, 54, 46}, {73, 72, 66, 65, 64, 61, 40}, {99, 96, 78, 72, 68, 67, 66, 65, 63, 62, 58, 54}, {78, 71, 66, 62, 60, 59, 54, 47}, {100, 96, 83, 68, 65, 63, 62, 45}, {96, 78, 77, 75, 73, 66, 64, 62, 58, 55}, {100, 98, 73, 71, 70, 65, 63, 47}, {100, 65, 64, 58, 52}, {97, 83, 81, 78, 77, 76, 75, 72, 66, 65, 61, 59}, {98, 83, 82, 80, 78, 77, 75, 71, 68, 63, 59}, {83, 78, 75, 73, 68, 66, 63, 61, 59}, {98, 76, 66, 61, 59, 47}, {100, 97, 80, 77, 73, 65, 64, 62, 59}, {100, 98, 94, 81, 75, 59, 52}, {99, 98, 95, 94, 80, 78, 75, 73, 71, 70, 67, 66}, {98, 96, 95, 94, 92, 80, 78, 76, 75, 66, 63}, {99, 97, 96, 94, 82, 81, 80, 75, 68, 67}, {97, 81, 80, 78, 75, 65, 59}, {99, 96, 95, 94, 90, 82, 81, 80, 76, 75, 67}, {98, 97, 90, 83, 81, 78, 76, 75, 74, 66}, {99, 96, 92, 81, 75, 67, 65}, {96, 93, 92, 87, 80, 77, 73, 67, 66}, {99, 98, 96, 92, 83, 81, 80, 78, 67}, {98, 97, 95, 92, 88, 82, 81, 77, 75, 73}, {99, 97, 94, 93, 92, 87, 82, 80, 67}, {96, 94, 92, 90, 89, 88, 87, 86, 81, 80, 79, 74}, {95, 93, 92, 87, 83, 80, 67}, {98, 94, 93, 90, 88, 80, 76, 70}, {96, 95, 92, 90, 87, 85, 67}, {100, 93, 88, 87, 86, 73, 68}, {96, 95, 94, 91, 90, 89, 88, 87, 86, 80, 79}, {94, 92, 90, 88, 85, 81, 76}, {97, 90, 89, 87, 86, 85, 84, 81}, {99, 95, 91, 90, 89, 88, 81}, {95, 94, 93, 90, 89, 87, 85}, {91, 89, 88, 86, 84, 82}, {89, 88, 86, 79, 74}, {95, 92, 90, 89, 84}, {92, 91, 77}, {92, 91, 89, 84}, {92, 90, 88, 87}, {92, 88, 87, 84}, {85, 79}, {91, 84}, {87, 85}, {87, 86}, {90, 86}, {79}, {84}, {85}, {93}, {85}, {94}, {}, {}, {}, {}, {}, {}, {}, {}, {}, {}, {}, {}, {}, {}, {}, {}, {}];
n_opt = 300;
dur = [3, 7, 10, 1, 6, 10, 3, 4, 6, 3, 4, 6, 4, 7, 8, 4, 7, 8, 3, 9, 10, 5, 7, 9, 2, 3, 7, 3, 5, 8, 4, 5, 6, 1, 2, 6, 4, 5, 6, 2, 8, 10, 3, 4, 7, 4, 5, 9, 4, 4, 5, 4, 5, 10, 2, 8, 10, 5, 6, 9, 3, 5, 10, 2, 6, 10, 1, 5, 7, 1, 5, 6, 2, 3, 10, 1, 3, 9, 2, 6, 8, 3, 8, 10, 1, 2, 3, 2, 3, 4, 6, 9, 10, 1, 3, 9, 2, 5, 7, 2, 7, 10, 2, 4, 6, 1, 8, 9, 2, 7, 9, 1, 2, 3, 3, 8, 9, 1, 6, 7, 2, 4, 9, 5, 7, 8, 2, 7, 9, 1, 2, 3, 1, 4, 8, 1, 3, 9, 2, 3, 8, 1, 7, 8, 1, 8, 10, 1, 7, 8, 2, 6, 8, 2, 3, 7, 3, 4, 5, 5, 7, 8, 2, 4, 8, 2, 4, 9, 2, 3, 10, 1, 2, 7, 1, 7, 9, 5, 7, 8, 2, 9, 10, 2, 5, 10, 6, 9, 10, 4, 7, 9, 2, 8, 9, 4, 9, 10, 4, 5, 10, 2, 3, 6, 1, 3, 8, 8, 9, 10, 2, 3, 7, 1, 3, 4, 1, 7, 9, 5, 8, 10, 3, 4, 9, 4, 7, 8, 1, 6, 7, 5, 6, 10, 4, 8, 10, 4, 6, 7, 2, 3, 7, 1, 5, 9, 3, 4, 7, 1, 2, 8, 1, 5, 7, 6, 7, 8, 1, 5, 6, 1, 6, 7, 1, 2, 3, 3, 5, 6, 2, 6, 9, 1, 4, 8, 1, 3, 9, 3, 7, 9, 1, 2, 3, 1, 5, 9, 1, 3, 10, 5, 6, 7, 4, 6, 9, 1, 3, 9];
rreq = [|4, 4, 3, 1, 1, 1, 5, 2, 2, 5, 4, 3, 5, 4, 3, 4, 4, 4, 4, 2, 2, 3, 2, 2, 3, 2, 2, 1, 1, 1, 2, 1, 1, 3, 2, 2, 3, 3, 3, 5, 4, 3, 3, 2, 2, 3, 2, 2, 4, 3, 3, 4, 2, 2, 2, 2, 2, 5, 3, 3, 3, 3, 3, 4, 4, 3, 5, 5, 5, 4, 3, 2, 3, 3, 3, 2, 1, 1, 5, 4, 3, 2, 2, 2, 5, 3, 3, 3, 3, 3, 4, 4, 3, 4, 4, 4, 4, 2, 2, 4, 4, 4, 3, 2, 2, 5, 4, 3, 5, 4, 3, 4, 4, 3, 2, 1, 1, 3, 2, 1, 4, 3, 2, 4, 3, 3, 2, 1, 1, 2, 2, 2, 5, 4, 3, 5, 4, 4, 3, 3, 3, 3, 2, 2, 4, 3, 1, 2, 2, 2, 4, 2, 2, 3, 2, 1, 4, 3, 3, 4, 4, 3, 1, 1, 1, 5, 4, 3, 4, 4, 3, 2, 2, 2, 5, 3, 3, 5, 3, 2, 3, 2, 1, 2, 2, 2, 1, 1, 1, 4, 4, 4, 3, 2, 1, 3, 1, 1, 2, 2, 2, 1, 1, 1, 3, 3, 2, 5, 4, 2, 3, 2, 2, 3, 2, 2, 4, 4, 4, 4, 4, 4, 3, 3, 1, 2, 2, 2, 5, 3, 1, 2, 1, 1, 3, 3, 2, 5, 3, 2, 4, 3, 3, 2, 1, 1, 3, 2, 2, 3, 1, 1, 2, 2, 1, 4, 4, 4, 4, 2, 2, 3, 3, 3, 3, 2, 2, 2, 2, 2, 3, 3, 3, 3, 3, 3, 4, 4, 3, 2, 2, 2, 4, 3, 2, 5, 4, 4, 2, 2, 2, 4, 2, 1, 2, 2, 1, 3, 3, 3
 |4, 2, 2, 4, 3, 3, 2, 2, 2, 3, 3, 3, 2, 2, 2, 4, 4, 4, 5, 3, 2, 3, 3, 3, 4, 4, 4, 5, 4, 4, 1, 1, 1, 5, 3, 3, 4, 4, 2, 4, 4, 4, 5, 4, 3, 3, 1, 1, 4, 3, 3, 3, 3, 2, 2, 1, 1, 3, 3, 2, 4, 4, 4, 1, 1, 1, 2, 2, 2, 3, 2, 1, 5, 5, 5, 1, 1, 1, 5, 3, 3, 4, 4, 4, 4, 4, 4, 3, 3, 3, 3, 2, 1, 3, 1, 1, 2, 1, 1, 2, 1, 1, 5, 4, 4, 4, 4, 4, 3, 3, 3, 2, 1, 1, 3, 2, 2, 4, 4, 4, 3, 2, 2, 5, 5, 5, 4, 4, 4, 5, 3, 3, 2, 1, 1, 5, 2, 2, 3, 3, 3, 4, 2, 2, 3, 3, 3, 4, 3, 3, 2, 1, 1, 5, 4, 2, 3, 3, 3, 3, 2, 2, 4, 4, 3, 3, 3, 2, 4, 4, 4, 4, 4, 4, 4, 4, 4, 2, 2, 1, 5, 4, 2, 3, 3, 2, 4, 4, 4, 2, 1, 1, 4, 3, 2, 3, 3, 1, 1, 1, 1, 4, 3, 3, 3, 3, 3, 5, 4, 4, 5, 4, 3, 5, 4, 4, 4, 4, 4, 4, 4, 4, 5, 3, 3, 3, 2, 1, 3, 1, 1, 2, 2, 2, 3, 2, 2, 3, 2, 2, 2, 1, 1, 3, 2, 1, 2, 2, 2, 3, 2, 2, 5, 3, 3, 4, 4, 2, 4, 3, 2, 2, 2, 2, 5, 2, 2, 4, 4, 4, 3, 3, 2, 3, 2, 2, 2, 1, 1, 4, 4, 4, 4, 2, 1, 4, 3, 3, 3, 2, 1, 3, 2, 1, 4, 4, 3, 2, 1, 1
 |6, 4, 3, 5, 5, 4, 7, 7, 6, 9, 9, 8, 3, 2, 2, 4, 4, 3, 9, 8, 8, 5, 5, 3, 10, 6, 4, 2, 1, 1, 9, 8, 7, 9, 8, 7, 6, 3, 2, 5, 4, 4, 6, 6, 5, 5, 2, 1, 9, 9, 9, 5, 2, 1, 7, 6, 6, 2, 1, 1, 4, 3, 3, 7, 7, 3, 2, 2, 2, 9, 8, 6, 8, 7, 7, 4, 3, 2, 7, 6, 6, 8, 6, 5, 8, 6, 4, 7, 6, 5, 1, 1, 1, 8, 5, 5, 8, 4, 3, 5, 2, 1, 8, 7, 7, 9, 8, 8, 8, 7, 7, 4, 3, 2, 4, 3, 2, 9, 9, 8, 6, 5, 4, 8, 7, 6, 8, 8, 8, 8, 8, 8, 7, 7, 3, 4, 2, 1, 10, 8, 7, 6, 3, 2, 5, 5, 5, 6, 6, 4, 8, 8, 7, 7, 3, 2, 7, 6, 5, 9, 8, 8, 8, 7, 7, 8, 6, 4, 8, 7, 4, 9, 8, 7, 6, 6, 2, 4, 3, 2, 10, 8, 7, 8, 5, 2, 7, 7, 7, 9, 7, 5, 7, 7, 6, 1, 1, 1, 1, 1, 1, 8, 5, 4, 9, 7, 5, 9, 8, 8, 6, 6, 3, 6, 6, 5, 10, 7, 3, 7, 7, 7, 7, 6, 4, 6, 3, 2, 6, 5, 5, 8, 7, 6, 5, 5, 5, 8, 7, 6, 2, 1, 1, 8, 7, 6, 10, 7, 2, 4, 4, 4, 7, 5, 1, 4, 4, 2, 8, 8, 8, 10, 8, 8, 9, 8, 7, 3, 2, 2, 3, 2, 2, 6, 5, 5, 7, 6, 6, 3, 2, 2, 2, 2, 2, 7, 7, 7, 9, 7, 6, 5, 5, 4, 8, 4, 4, 9, 7, 6
 |10, 6, 2, 2, 2, 2, 5, 4, 2, 6, 6, 5, 4, 4, 2, 7, 4, 1, 8, 5, 4, 5, 3, 3, 8, 7, 7, 6, 4, 2, 9, 7, 3, 6, 5, 5, 6, 4, 1, 9, 8, 6, 9, 8, 6, 7, 5, 3, 2, 3, 2, 8, 6, 4, 8, 6, 5, 7, 3, 2, 7, 7, 6, 4, 3, 2, 9, 4, 2, 5, 4, 1, 4, 3, 2, 6, 5, 3, 4, 3, 1, 6, 6, 2, 9, 8, 8, 9, 9, 9, 4, 2, 2, 3, 2, 1, 7, 6, 5, 9, 7, 7, 9, 9, 8, 3, 3, 3, 10, 6, 4, 6, 4, 3, 8, 6, 4, 5, 4, 3, 7, 4, 3, 10, 10, 10, 7, 3, 1, 5, 5, 2, 8, 6, 4, 5, 3, 3, 8, 4, 2, 7, 7, 6, 8, 7, 7, 9, 4, 4, 5, 5, 5, 6, 2, 2, 10, 10, 10, 3, 2, 2, 9, 7, 5, 10, 9, 9, 7, 7, 4, 8, 7, 7, 2, 2, 2, 6, 6, 6, 2, 1, 1, 9, 9, 8, 8, 5, 4, 9, 8, 8, 5, 5, 5, 8, 7, 6, 8, 7, 6, 10, 6, 4, 7, 7, 7, 7, 6, 5, 4, 4, 4, 8, 5, 3, 5, 4, 3, 7, 6, 5, 9, 5, 5, 8, 7, 6, 7, 5, 4, 1, 1, 1, 8, 8, 6, 10, 10, 10, 6, 6, 5, 9, 9, 9, 5, 3, 1, 10, 7, 5, 8, 8, 8, 4, 3, 2, 8, 5, 3, 8, 4, 1, 9, 8, 8, 9, 8, 7, 7, 4, 3, 5, 4, 3, 6, 4, 3, 3, 2, 1, 7, 5, 5, 7, 5, 4, 7, 7, 7, 7, 7, 7, 9, 6, 3, 8, 6, 5|];